NAME : instances/20-120-tsp/instance-26.tsp
COMMENT : No Comment
TYPE : TSP
DIMENSION: 26
EDGE_WEIGHT_TYPE : EUC_2D
NODE_COORD_SECTION
1 6245 937 
2 1720 9960 
3 8228 5948 
4 6608 3621 
5 3905 3025 
6 9596 2344 
7 264 3465 
8 1208 3309 
9 5234 6025 
10 8892 2125 
11 2269 6119 
12 6570 3134 
13 2301 3752 
14 1785 8082 
15 6799 7338 
16 4241 9752 
17 3070 2085 
18 9228 9455 
19 6397 5244 
20 7995 4562 
21 2826 5071 
22 591 9709 
23 4652 5057 
24 7635 2406 
25 6331 3641 
26 5837 6363 
EOF
